Geographic Exponential Decay
80 190 10 63 149 134 106 210 317 103 130 9 119 91 31 161 54 110 140 249 308 278 123 95 126 167 76 142 35 248 254 24 16 50 177 233 203 49 66 51 269 61 127 298 55 85 252 145 132 26 231 237 99 283 275 108 172 256 228 92 221 7 27 147 86 286 284 306 1 260 257 70 302 183 33 65 238 128 18 82 206
p edge 320 665
e 0 201 2.0
e 1 89 18.0
e 1 287 53.0
e 1 112 7.0
e 1 28 5.0
e 1 297 37.0
e 1 90 40.0
e 1 264 48.0
e 1 259 92.0
e 1 130 51.0
e 2 247 1.0
e 3 220 4.0
e 4 63 94.0
e 5 194 3.0
e 6 132 41.0
e 6 36 12.0
e 7 85 35.0
e 7 73 92.0
e 7 140 42.0
e 7 163 98.0
e 7 259 65.0
e 7 47 45.0
e 7 258 10.0
e 7 312 76.0
e 7 293 24.0
e 8 61 84.0
e 9 244 84.0
e 9 194 50.0
e 9 37 59.0
e 9 308 2.0
e 9 177 48.0
e 9 74 75.0
e 9 275 25.0
e 9 278 48.0
e 9 185 1.0
e 10 58 68.0
e 10 156 73.0
e 10 116 97.0
e 10 8 78.0
e 10 233 15.0
e 10 238 35.0
e 10 66 53.0
e 10 53 5.0
e 10 158 11.0
e 11 253 1.0
e 12 198 1.0
e 13 39 3.0
e 14 309 2.0
e 15 217 2.0
e 16 232 24.0
e 16 99 87.0
e 16 185 38.0
e 16 175 53.0
e 16 272 58.0
e 16 112 22.0
e 16 73 2.0
e 16 33 98.0
e 16 26 39.0
e 17 316 1.0
e 18 234 49.0
e 18 65 46.0
e 18 241 26.0
e 18 253 62.0
e 18 5 100.0
e 18 298 6.0
e 18 285 69.0
e 18 186 14.0
e 18 242 60.0
e 19 212 1.0
e 20 308 50.0
e 20 227 19.0
e 20 206 19.0
e 21 29 1.0
e 22 75 2.0
e 23 99 1.0
e 24 309 60.0
e 24 97 51.0
e 24 281 57.0
e 24 91 21.0
e 24 30 39.0
e 24 46 71.0
e 24 219 13.0
e 24 189 31.0
e 24 274 26.0
e 25 105 1.0
e 26 197 43.0
e 26 187 15.0
e 26 21 9.0
e 26 273 73.0
e 26 88 2.0
e 26 22 42.0
e 26 224 16.0
e 26 195 30.0
e 27 20 73.0
e 27 281 76.0
e 27 95 39.0
e 27 12 38.0
e 27 125 98.0
e 27 85 48.0
e 27 70 84.0
e 27 134 88.0
e 27 35 24.0
e 28 241 17.0
e 28 301 4.0
e 31 244 88.0
e 31 283 24.0
e 31 128 81.0
e 31 100 84.0
e 31 60 54.0
e 31 176 95.0
e 31 254 90.0
e 31 95 64.0
e 31 138 67.0
e 32 257 28.0
e 33 162 89.0
e 33 126 65.0
e 33 85 36.0
e 33 10 23.0
e 33 30 27.0
e 33 165 48.0
e 33 139 86.0
e 33 13 70.0
e 34 239 10.0
e 34 74 9.0
e 34 62 13.0
e 35 163 79.0
e 35 14 72.0
e 35 117 15.0
e 35 146 48.0
e 35 234 45.0
e 35 104 75.0
e 35 176 30.0
e 35 80 95.0
e 37 60 12.0
e 38 308 82.0
e 40 6 8.0
e 40 51 86.0
e 41 135 4.0
e 42 240 2.0
e 43 17 4.0
e 44 235 5.0
e 44 236 4.0
e 45 15 1.0
e 48 284 73.0
e 49 298 83.0
e 49 23 62.0
e 49 261 80.0
e 49 31 79.0
e 49 171 28.0
e 49 9 33.0
e 49 11 54.0
e 49 313 44.0
e 49 93 18.0
e 50 260 88.0
e 50 282 37.0
e 50 114 90.0
e 50 130 59.0
e 50 289 86.0
e 50 189 79.0
e 50 139 80.0
e 50 254 60.0
e 50 295 60.0
e 51 206 95.0
e 51 292 39.0
e 51 91 39.0
e 51 143 74.0
e 51 78 28.0
e 51 130 73.0
e 51 32 9.0
e 51 64 65.0
e 52 265 6.0
e 54 77 96.0
e 54 24 68.0
e 54 313 11.0
e 54 284 1.0
e 54 240 30.0
e 54 204 71.0
e 54 19 7.0
e 54 276 4.0
e 54 47 70.0
e 55 63 46.0
e 55 203 26.0
e 55 125 98.0
e 55 122 99.0
e 55 84 69.0
e 55 204 20.0
e 55 198 60.0
e 55 154 66.0
e 55 126 13.0
e 56 199 19.0
e 56 263 39.0
e 56 158 40.0
e 56 101 43.0
e 56 306 78.0
e 57 265 5.0
e 59 16 14.0
e 61 95 25.0
e 61 162 57.0
e 61 227 52.0
e 61 274 3.0
e 61 84 11.0
e 61 247 52.0
e 61 310 38.0
e 61 147 82.0
e 63 82 6.0
e 63 196 76.0
e 63 257 3.0
e 63 113 25.0
e 63 67 32.0
e 63 152 81.0
e 63 293 70.0
e 64 18 53.0
e 65 33 36.0
e 65 245 92.0
e 65 129 17.0
e 65 142 76.0
e 65 55 79.0
e 65 206 46.0
e 65 66 11.0
e 65 124 77.0
e 66 225 99.0
e 66 231 96.0
e 66 299 98.0
e 66 104 2.0
e 66 209 13.0
e 66 120 61.0
e 66 199 95.0
e 68 64 2.0
e 69 249 65.0
e 69 52 2.0
e 70 75 53.0
e 70 80 28.0
e 70 190 83.0
e 70 296 24.0
e 70 61 43.0
e 70 206 3.0
e 70 102 80.0
e 70 49 23.0
e 71 271 5.0
e 72 290 8.0
e 72 291 5.0
e 76 48 56.0
e 76 191 67.0
e 76 152 96.0
e 76 309 28.0
e 76 59 25.0
e 76 25 70.0
e 76 65 30.0
e 76 303 98.0
e 76 248 44.0
e 78 62 15.0
e 78 26 47.0
e 79 302 72.0
e 79 248 56.0
e 81 166 3.0
e 82 66 62.0
e 82 110 9.0
e 82 270 44.0
e 82 3 94.0
e 82 123 44.0
e 82 34 59.0
e 82 310 45.0
e 82 27 20.0
e 83 142 43.0
e 85 245 73.0
e 85 63 14.0
e 85 117 82.0
e 85 1 84.0
e 85 28 53.0
e 85 298 77.0
e 86 87 23.0
e 86 44 94.0
e 86 118 34.0
e 86 206 67.0
e 86 91 55.0
e 86 4 85.0
e 86 103 85.0
e 86 141 8.0
e 86 294 43.0
e 91 186 55.0
e 91 264 55.0
e 91 187 68.0
e 91 266 43.0
e 91 37 98.0
e 91 131 7.0
e 92 232 69.0
e 92 136 18.0
e 92 72 83.0
e 92 113 22.0
e 92 76 37.0
e 92 270 4.0
e 92 193 72.0
e 92 209 41.0
e 92 114 87.0
e 94 87 2.0
e 95 128 55.0
e 95 105 18.0
e 95 115 30.0
e 95 77 64.0
e 95 266 66.0
e 95 78 8.0
e 96 242 2.0
e 98 202 4.0
e 99 261 8.0
e 99 53 12.0
e 99 95 87.0
e 99 88 98.0
e 99 29 79.0
e 99 267 77.0
e 99 7 4.0
e 103 99 82.0
e 103 172 41.0
e 103 218 65.0
e 103 190 37.0
e 103 311 51.0
e 103 45 32.0
e 103 173 2.0
e 103 252 86.0
e 106 164 64.0
e 106 273 13.0
e 106 35 98.0
e 106 126 12.0
e 106 271 24.0
e 106 110 80.0
e 106 155 77.0
e 106 67 66.0
e 106 160 47.0
e 107 272 1.0
e 108 201 85.0
e 108 58 60.0
e 108 122 100.0
e 108 217 92.0
e 108 275 81.0
e 108 136 81.0
e 108 256 74.0
e 108 96 64.0
e 108 296 1.0
e 109 71 1.0
e 110 288 95.0
e 110 50 91.0
e 110 256 63.0
e 110 129 67.0
e 110 39 37.0
e 110 312 39.0
e 110 159 85.0
e 111 36 2.0
e 119 130 71.0
e 119 68 69.0
e 119 149 33.0
e 119 142 58.0
e 119 256 29.0
e 119 157 23.0
e 119 262 22.0
e 119 275 15.0
e 119 155 33.0
e 121 115 1.0
e 123 183 26.0
e 123 219 57.0
e 123 193 67.0
e 123 169 48.0
e 123 38 24.0
e 123 314 31.0
e 123 214 93.0
e 123 144 69.0
e 126 54 13.0
e 126 116 2.0
e 126 166 94.0
e 126 243 39.0
e 126 294 67.0
e 126 226 71.0
e 127 133 11.0
e 127 118 45.0
e 127 287 72.0
e 127 51 64.0
e 127 243 6.0
e 127 79 4.0
e 127 190 97.0
e 127 306 22.0
e 127 128 85.0
e 128 69 49.0
e 128 210 20.0
e 128 237 95.0
e 128 256 32.0
e 128 97 84.0
e 128 40 23.0
e 130 131 55.0
e 130 260 72.0
e 130 126 74.0
e 130 195 90.0
e 130 254 92.0
e 132 314 87.0
e 132 41 28.0
e 132 70 2.0
e 132 42 33.0
e 132 43 82.0
e 132 275 60.0
e 132 46 60.0
e 132 111 71.0
e 134 81 69.0
e 134 56 30.0
e 134 145 40.0
e 134 93 74.0
e 134 275 88.0
e 134 57 50.0
e 134 286 74.0
e 134 82 21.0
e 137 83 6.0
e 140 92 51.0
e 140 85 40.0
e 140 86 67.0
e 140 89 71.0
e 140 98 23.0
e 140 212 64.0
e 140 226 62.0
e 140 190 72.0
e 142 302 96.0
e 142 90 29.0
e 142 130 17.0
e 142 94 65.0
e 142 231 53.0
e 142 91 63.0
e 145 100 57.0
e 145 306 66.0
e 145 280 20.0
e 145 150 68.0
e 145 235 19.0
e 145 101 45.0
e 145 250 28.0
e 145 302 81.0
e 147 138 30.0
e 147 156 93.0
e 147 275 29.0
e 147 154 85.0
e 147 280 47.0
e 147 208 66.0
e 147 197 41.0
e 147 318 32.0
e 148 107 2.0
e 149 102 92.0
e 149 180 80.0
e 149 140 87.0
e 149 103 30.0
e 149 246 12.0
e 149 128 45.0
e 149 218 73.0
e 149 248 78.0
e 151 106 43.0
e 153 237 74.0
e 153 246 7.0
e 161 288 55.0
e 161 164 58.0
e 161 286 43.0
e 161 269 22.0
e 161 276 91.0
e 161 108 81.0
e 161 109 16.0
e 161 110 13.0
e 161 159 28.0
e 167 2 83.0
e 167 119 98.0
e 167 120 25.0
e 167 197 44.0
e 167 202 15.0
e 167 121 26.0
e 167 123 52.0
e 167 160 80.0
e 167 171 69.0
e 168 124 2.0
e 170 177 12.0
e 172 127 82.0
e 172 165 6.0
e 172 132 37.0
e 172 184 25.0
e 172 133 43.0
e 172 295 36.0
e 172 167 73.0
e 172 141 47.0
e 174 134 77.0
e 176 135 24.0
e 177 137 42.0
e 177 142 61.0
e 177 143 36.0
e 177 144 20.0
e 177 145 37.0
e 177 311 32.0
e 177 146 27.0
e 178 176 22.0
e 179 147 77.0
e 181 246 7.0
e 181 148 5.0
e 182 168 4.0
e 183 187 27.0
e 183 228 77.0
e 183 199 9.0
e 183 149 66.0
e 183 150 66.0
e 183 236 65.0
e 183 169 14.0
e 183 151 93.0
e 188 153 4.0
e 188 154 4.0
e 190 203 84.0
e 190 155 25.0
e 190 170 26.0
e 190 172 56.0
e 190 157 69.0
e 192 161 70.0
e 200 173 1.0
e 203 318 52.0
e 203 196 51.0
e 203 174 48.0
e 203 286 90.0
e 203 175 11.0
e 203 177 10.0
e 203 178 90.0
e 205 179 1.0
e 206 180 57.0
e 206 192 63.0
e 206 181 28.0
e 206 182 60.0
e 207 288 3.0
e 210 183 43.0
e 210 184 35.0
e 210 188 55.0
e 210 203 97.0
e 210 190 42.0
e 210 205 82.0
e 210 191 4.0
e 210 200 58.0
e 211 206 89.0
e 211 207 3.0
e 211 229 7.0
e 213 314 17.0
e 214 220 4.0
e 214 208 3.0
e 215 210 6.0
e 216 211 3.0
e 221 213 60.0
e 221 214 44.0
e 221 215 58.0
e 221 216 89.0
e 221 222 38.0
e 221 264 12.0
e 221 223 43.0
e 221 303 49.0
e 221 268 66.0
e 223 222 11.0
e 228 221 67.0
e 228 223 55.0
e 228 224 55.0
e 228 238 84.0
e 228 248 59.0
e 228 295 59.0
e 228 225 91.0
e 228 227 77.0
e 230 286 38.0
e 231 228 99.0
e 231 279 8.0
e 231 229 85.0
e 231 297 9.0
e 231 230 53.0
e 231 233 20.0
e 231 277 55.0
e 233 236 23.0
e 233 237 5.0
e 233 238 58.0
e 233 239 36.0
e 233 248 35.0
e 233 249 28.0
e 233 250 3.0
e 237 231 60.0
e 237 238 43.0
e 237 248 85.0
e 237 249 46.0
e 237 250 78.0
e 237 314 71.0
e 238 248 12.0
e 238 277 92.0
e 238 249 49.0
e 238 250 1.0
e 238 260 89.0
e 248 249 92.0
e 248 251 8.0
e 249 251 79.0
e 249 252 8.0
e 249 254 5.0
e 249 255 85.0
e 252 233 40.0
e 252 248 39.0
e 252 254 10.0
e 252 237 41.0
e 252 238 45.0
e 252 255 7.0
e 252 256 41.0
e 254 289 87.0
e 254 256 93.0
e 254 298 30.0
e 254 278 80.0
e 256 249 74.0
e 256 257 6.0
e 256 258 89.0
e 257 252 7.0
e 257 254 56.0
e 257 260 80.0
e 257 262 61.0
e 257 305 45.0
e 257 263 98.0
e 260 286 68.0
e 260 256 74.0
e 260 267 98.0
e 260 268 68.0
e 260 269 73.0
e 267 257 56.0
e 268 308 18.0
e 268 267 15.0
e 268 297 45.0
e 269 268 85.0
e 269 275 55.0
e 269 317 40.0
e 269 278 2.0
e 269 279 4.0
e 269 282 97.0
e 269 283 54.0
e 275 315 74.0
e 275 278 86.0
e 278 260 15.0
e 278 283 20.0
e 278 284 13.0
e 278 285 74.0
e 278 286 1.0
e 283 275 25.0
e 283 284 26.0
e 283 286 78.0
e 283 289 38.0
e 283 290 26.0
e 283 291 30.0
e 284 269 73.0
e 284 286 5.0
e 284 289 52.0
e 284 292 13.0
e 284 297 17.0
e 286 298 100.0
e 298 278 72.0
e 298 283 78.0
e 298 284 54.0
e 298 299 61.0
e 300 298 32.0
e 302 286 54.0
e 302 300 30.0
e 302 301 86.0
e 302 304 36.0
e 302 305 79.0
e 302 306 72.0
e 306 304 61.0
e 306 307 91.0
e 306 308 88.0
e 306 315 86.0
e 306 316 14.0
e 308 302 50.0
e 308 307 84.0
e 308 317 5.0
e 308 319 35.0
e 317 306 48.0
e 317 319 20.0
e 317 0 29.0
